(declare-datatypes () ((Nat (Z) (S (p Nat)))))
(declare-datatypes () ((list (nil) (cons (head Nat) (tail list)))))
(declare-fun le (Nat Nat) Bool)
(declare-fun insert2 (Nat list) list)
(declare-fun equal (Nat Nat) Bool)
(declare-fun elem (Nat list) Bool)
(assert (not (forall ((x Nat) (y list)) (elem x (insert2 x y)))))
(assert
  (forall ((x Nat) (y Nat))
    (= (le x y)
      (ite (is-S x) (ite (is-S y) (le (p x) (p y)) false) true))))
(assert
  (forall ((x Nat) (y list))
    (= (insert2 x y)
      (ite
        (is-cons y)
        (ite
          (le x (head y)) (cons x (cons (head y) (tail y)))
          (cons (head y) (insert2 x (tail y))))
        (cons x nil)))))
(assert
  (forall ((x Nat) (y Nat))
    (= (equal x y)
      (ite
        (is-S x) (ite (is-S y) (equal (p x) (p y)) false)
        (not (is-S y))))))
(assert
  (forall ((x Nat) (y list))
    (= (elem x y)
      (ite
        (is-cons y) (or (equal x (head y)) (elem x (tail y))) false))))
(check-sat)
